Minimize
  - 34 y_0 - 38 y_1 - 20 y_2 - 23 y_3 - 25 y_4 - 27 y_5 - 35 y_6 - 63 y_7
   - 55 y_8 - 47 y_9 - 48 y_11 - 21 y_12 - 37 y_13 - 59 y_14 - 17 y_15
   - 19 y_16 - 12 y_17 - 28 y_18 - 37 y_19 + 32 x_0_1 + 26 x_0_3 + 33 x_0_5
   + 3 x_0_6 + 61 x_0_7 + 67 x_0_10 + 61 x_0_14 + 37 x_0_15 + 49 x_0_17
   + 38 x_0_18 + 64 x_0_19 + 30 x_1_3 + 43 x_1_4 + 62 x_1_5 + 33 x_1_6
   + 76 x_1_7 + 51 x_1_8 + 55 x_1_9 + 76 x_1_10 + 22 x_1_11 + 36 x_1_12
   + 73 x_1_13 + 84 x_1_14 + 43 x_1_15 + 61 x_1_16 + 53 x_1_17 + 67 x_1_18
   + 95 x_1_19 + 52 x_2_3 + 38 x_2_4 + 27 x_2_5 + 94 x_2_8 + 72 x_2_9
   + 39 x_2_10 + 93 x_2_11 + 58 x_2_12 + 91 x_2_14 + 20 x_2_16 + 45 x_2_17
   + 26 x_2_18 + 35 x_2_19 + 21 x_3_4 + 40 x_3_5 + 30 x_3_6 + 87 x_3_7
   + 66 x_3_8 + 57 x_3_9 + 46 x_3_10 + 58 x_3_13 + 13 x_3_15 + 33 x_3_16
   + 25 x_3_17 + 74 x_3_19 + 20 x_4_5 + 21 x_4_6 + 60 x_4_8 + 34 x_4_12
   + 37 x_4_13 + 71 x_4_14 + 25 x_4_15 + 19 x_4_16 + 53 x_4_19 + 68 x_5_8
   + 71 x_5_11 + 52 x_5_12 + 21 x_5_13 + 66 x_5_14 + 16 x_5_16 + 48 x_5_17
   + 6 x_5_18 + 33 x_5_19 + 58 x_6_7 + 27 x_6_9 + 37 x_6_11 + 44 x_6_12
   + 40 x_6_15 + 40 x_6_16 + 52 x_6_17 + 64 x_6_19 + 26 x_7_8 + 34 x_7_9
   + 101 x_7_12 + 110 x_7_17 + 79 x_7_18 + 91 x_7_19 + 26 x_8_9
   + 109 x_8_10 + 79 x_8_12 + 41 x_8_14 + 78 x_8_15 + 78 x_8_16 + 70 x_8_18
   + 89 x_8_19 + 93 x_9_10 + 47 x_9_11 + 72 x_9_12 + 30 x_9_14 + 66 x_9_15
   + 47 x_9_18 + 95 x_10_11 + 75 x_10_13 + 119 x_10_14 + 33 x_10_15
   + 38 x_10_16 + 57 x_10_18 + 74 x_10_19 + 57 x_11_12 + 73 x_11_14
   + 62 x_11_15 + 74 x_11_16 + 73 x_11_17 + 101 x_11_19 + 14 x_12_15
   + 41 x_12_16 + 18 x_12_17 + 84 x_12_19 + 49 x_13_14 + 37 x_13_16
   + 69 x_13_17 + 18 x_13_18 + 26 x_13_19 + 95 x_14_15 + 106 x_14_17
   + 65 x_14_18 + 70 x_14_19 + 28 x_15_16 + 12 x_15_17 + 45 x_15_18
   + 71 x_15_19 + 20 x_16_18 + 43 x_16_19 + 52 x_17_6 + 28 x_18_19
   + 645 Constant
Subject To
 c_0: y_6 = 1
 c_1_0: y_0 + y_6 >= 1
 c_1_1: y_1 >= 1
 c_1_2: y_2 >= 1
 c_1_3: y_3 >= 1
 c_1_4: y_4 >= 1
 c_1_5: y_5 + y_18 >= 1
 c_1_6: y_0 + y_6 >= 1
 c_1_7: y_7 >= 1
 c_1_8: y_8 >= 1
 c_1_9: y_9 >= 1
 c_1_10: y_10 >= 1
 c_1_11: y_11 >= 1
 c_1_12: y_12 >= 1
 c_1_13: y_13 >= 1
 c_1_14: y_14 >= 1
 c_1_15: y_15 >= 1
 c_1_16: y_16 >= 1
 c_1_17: y_17 >= 1
 c_1_18: y_5 + y_18 >= 1
 c_1_19: y_19 >= 1
 c_2_0: - 2 y_0 + x_0_1 + x_0_3 + x_0_5 + x_0_6 + x_0_7 + x_0_10 + x_0_14
   + x_0_15 + x_0_17 + x_0_18 + x_0_19 = 0
 c_2_1: - 2 y_1 + x_0_1 + x_1_3 + x_1_4 + x_1_5 + x_1_6 + x_1_7 + x_1_8
   + x_1_9 + x_1_10 + x_1_11 + x_1_12 + x_1_13 + x_1_14 + x_1_15 + x_1_16
   + x_1_17 + x_1_18 + x_1_19 = 0
 c_2_2: - 2 y_2 + x_2_3 + x_2_4 + x_2_5 + x_2_8 + x_2_9 + x_2_10 + x_2_11
   + x_2_12 + x_2_14 + x_2_16 + x_2_17 + x_2_18 + x_2_19 = 0
 c_2_3: - 2 y_3 + x_0_3 + x_1_3 + x_2_3 + x_3_4 + x_3_5 + x_3_6 + x_3_7
   + x_3_8 + x_3_9 + x_3_10 + x_3_13 + x_3_15 + x_3_16 + x_3_17 + x_3_19
   = 0
 c_2_4: - 2 y_4 + x_1_4 + x_2_4 + x_3_4 + x_4_5 + x_4_6 + x_4_8 + x_4_12
   + x_4_13 + x_4_14 + x_4_15 + x_4_16 + x_4_19 = 0
 c_2_5: - 2 y_5 + x_0_5 + x_1_5 + x_2_5 + x_3_5 + x_4_5 + x_5_8 + x_5_11
   + x_5_12 + x_5_13 + x_5_14 + x_5_16 + x_5_17 + x_5_18 + x_5_19 = 0
 c_2_6: - 2 y_6 + x_0_6 + x_1_6 + x_3_6 + x_4_6 + x_6_7 + x_6_9 + x_6_11
   + x_6_12 + x_6_15 + x_6_16 + x_6_19 + 2 x_17_6 = 0
 c_2_7: - 2 y_7 + x_0_7 + x_1_7 + x_3_7 + x_6_7 + x_7_8 + x_7_9 + x_7_12
   + x_7_17 + x_7_18 + x_7_19 = 0
 c_2_8: - 2 y_8 + x_1_8 + x_2_8 + x_3_8 + x_4_8 + x_5_8 + x_7_8 + x_8_9
   + x_8_10 + x_8_12 + x_8_14 + x_8_15 + x_8_16 + x_8_18 + x_8_19 = 0
 c_2_9: - 2 y_9 + x_1_9 + x_2_9 + x_3_9 + x_6_9 + x_7_9 + x_8_9 + x_9_10
   + x_9_11 + x_9_12 + x_9_14 + x_9_15 + x_9_18 = 0
 c_2_10: - 2 y_10 + x_0_10 + x_1_10 + x_2_10 + x_3_10 + x_8_10 + x_9_10
   + x_10_11 + x_10_13 + x_10_14 + x_10_15 + x_10_16 + x_10_18 + x_10_19
   = 0
 c_2_11: - 2 y_11 + x_1_11 + x_2_11 + x_5_11 + x_6_11 + x_9_11 + x_10_11
   + x_11_12 + x_11_14 + x_11_15 + x_11_16 + x_11_17 + x_11_19 = 0
 c_2_12: - 2 y_12 + x_1_12 + x_2_12 + x_4_12 + x_5_12 + x_6_12 + x_7_12
   + x_8_12 + x_9_12 + x_11_12 + x_12_15 + x_12_16 + x_12_17 + x_12_19 = 0
 c_2_13: - 2 y_13 + x_1_13 + x_3_13 + x_4_13 + x_5_13 + x_10_13 + x_13_14
   + x_13_16 + x_13_17 + x_13_18 + x_13_19 = 0
 c_2_14: - 2 y_14 + x_0_14 + x_1_14 + x_2_14 + x_4_14 + x_5_14 + x_8_14
   + x_9_14 + x_10_14 + x_11_14 + x_13_14 + x_14_15 + x_14_17 + x_14_18
   + x_14_19 = 0
 c_2_15: - 2 y_15 + x_0_15 + x_1_15 + x_3_15 + x_4_15 + x_6_15 + x_8_15
   + x_9_15 + x_10_15 + x_11_15 + x_12_15 + x_14_15 + x_15_16 + x_15_17
   + x_15_18 + x_15_19 = 0
 c_2_16: - 2 y_16 + x_1_16 + x_2_16 + x_3_16 + x_4_16 + x_5_16 + x_6_16
   + x_8_16 + x_10_16 + x_11_16 + x_12_16 + x_13_16 + x_15_16 + x_16_18
   + x_16_19 = 0
 c_2_17: - 2 y_17 + x_0_17 + x_1_17 + x_2_17 + x_3_17 + x_5_17 + x_7_17
   + x_11_17 + x_12_17 + x_13_17 + x_14_17 + x_15_17 + 2 x_17_6 = 0
 c_2_18: - 2 y_18 + x_0_18 + x_1_18 + x_2_18 + x_5_18 + x_7_18 + x_8_18
   + x_9_18 + x_10_18 + x_13_18 + x_14_18 + x_15_18 + x_16_18 + x_18_19
   = 0
 c_2_19: - 2 y_19 + x_0_19 + x_1_19 + x_2_19 + x_3_19 + x_4_19 + x_5_19
   + x_6_19 + x_7_19 + x_8_19 + x_10_19 + x_11_19 + x_12_19 + x_13_19
   + x_14_19 + x_15_19 + x_16_19 + x_18_19 = 0
Bounds
 Constant = 1
Binaries
 y_0 y_1 y_2 y_3 y_4 y_5 y_6 y_7 y_8 y_9 y_10 y_11 y_12 y_13 y_14 y_15 y_16
 y_17 y_18 y_19 x_0_1 x_0_3 x_0_5 x_0_6 x_0_7 x_0_10 x_0_14 x_0_15 x_0_17
 x_0_18 x_0_19 x_1_3 x_1_4 x_1_5 x_1_6 x_1_7 x_1_8 x_1_9 x_1_10 x_1_11
 x_1_12 x_1_13 x_1_14 x_1_15 x_1_16 x_1_17 x_1_18 x_1_19 x_2_3 x_2_4 x_2_5
 x_2_8 x_2_9 x_2_10 x_2_11 x_2_12 x_2_14 x_2_16 x_2_17 x_2_18 x_2_19 x_3_4
 x_3_5 x_3_6 x_3_7 x_3_8 x_3_9 x_3_10 x_3_13 x_3_15 x_3_16 x_3_17 x_3_19
 x_4_5 x_4_6 x_4_8 x_4_12 x_4_13 x_4_14 x_4_15 x_4_16 x_4_19 x_5_8 x_5_11
 x_5_12 x_5_13 x_5_14 x_5_16 x_5_17 x_5_18 x_5_19 x_6_7 x_6_9 x_6_11 x_6_12
 x_6_15 x_6_16 x_6_17 x_6_19 x_7_8 x_7_9 x_7_12 x_7_17 x_7_18 x_7_19 x_8_9
 x_8_10 x_8_12 x_8_14 x_8_15 x_8_16 x_8_18 x_8_19 x_9_10 x_9_11 x_9_12
 x_9_14 x_9_15 x_9_18 x_10_11 x_10_13 x_10_14 x_10_15 x_10_16 x_10_18
 x_10_19 x_11_12 x_11_14 x_11_15 x_11_16 x_11_17 x_11_19 x_12_15 x_12_16
 x_12_17 x_12_19 x_13_14 x_13_16 x_13_17 x_13_18 x_13_19 x_14_15 x_14_17
 x_14_18 x_14_19 x_15_16 x_15_17 x_15_18 x_15_19 x_16_18 x_16_19 x_17_6
 x_18_19
End
